0 2 11 
1 2 14 
2 2 16 
3 2 17 
4 2 18 
5 2 20 
6 2 22 
7 2 23 
8 2 24 
9 2 9 
10 5 29 
11 5 33 
12 9 16 
13 9 22 
14 9 26 
15 9 29 
16 9 33 
17 10 27 
18 10 31 
19 11 15 
20 11 21 
21 11 5 
22 15 18 
23 15 24 
24 15 28 
25 15 32 
26 25 10 
27 25 12 
28 25 13 
29 25 14 
30 25 20 
31 25 22 
32 25 23 
33 25 24 
34 25 31 
35 28 18 
36 28 8 
37 32 12 
38 32 22 
39 34 11 
40 34 16 
41 34 21 
42 35 5 
43 38 14 
44 38 24 
45 38 8 
46 41 31 
47 48 10 
48 48 12 
49 48 13 
50 48 14 
51 48 16 
52 48 18 
53 48 19 
54 48 20 
55 48 6 
56 51 25 
57 51 27 
58 51 30 
59 51 32 
60 55 12 
61 55 18 
62 57 11 
63 57 17 
64 57 26 
65 57 29 
66 58 22 
67 61 14 
68 61 20 
69 61 25 
70 61 27 
71 61 30 
72 61 32 
73 63 6 
74 71 10 
75 71 12 
76 71 13 
77 71 14 
78 71 16 
79 71 18 
80 71 19 
81 71 20 
82 71 23 
83 71 30 
84 74 7 
85 78 12 
86 78 18 
87 80 11 
88 80 17 
89 80 5 
90 84 14 
91 84 20 
92 86 23 
93 87 30 
94 89 39 
95 94 10 
96 94 12 
97 94 13 
98 94 14 
99 94 16 
100 94 18 
101 94 20 
102 94 26 
103 94 28 
104 97 17 
105 97 19 
106 97 21 
107 97 31 
108 97 6 
109 97 8 
110 101 12 
111 102 16 
112 102 18 
113 102 20 
114 103 11 
115 103 16 
116 103 18 
117 103 20 
118 103 22 
119 103 30 
120 103 5 
121 107 14 
122 107 17 
123 107 19 
124 107 21 
125 107 31 
126 107 6 
127 107 8 
128 117 10 
129 117 12 
130 117 13 
131 117 14 
132 120 20 
133 120 27 
134 120 30 
135 120 34 
136 120 8 
137 123 16 
138 123 22 
139 124 12 
140 124 16 
141 124 22 
142 125 16 
143 125 22 
144 126 11 
145 126 16 
146 126 23 
147 126 25 
148 126 28 
149 127 16 
150 127 5 
151 130 14 
152 130 8 
153 133 17 
154 133 18 
155 133 20 
156 133 21 
157 133 22 
158 140 10 
159 140 14 
160 140 16 
161 140 17 
162 140 18 
163 140 20 
164 140 22 
165 140 24 
166 143 21 
167 143 24 
168 145 0 
169 146 0 
170 147 0 
171 147 16 
172 147 22 
173 148 0 
174 148 20 
175 148 22 
176 149 0 
177 149 15 
178 149 20 
179 149 22 
180 149 29 
181 150 0 
182 151 0 
183 152 0 
184 153 0 
185 153 18 
186 153 21 
187 154 0 
188 156 10 
189 163 10 
190 163 12 
191 163 13 
192 163 14 
193 163 20 
194 163 22 
195 163 31 
196 163 33 
197 163 6 
198 166 17 
199 166 21 
200 166 23 
201 166 26 
202 170 12 
203 171 20 
204 171 22 
205 172 11 
206 172 16 
207 172 20 
208 172 22 
209 172 24 
210 172 27 
211 176 14 
212 176 17 
213 176 21 
214 176 23 
215 178 6 
216 186 10 
217 186 12 
218 186 13 
219 186 14 
220 186 17 
221 186 22 
222 186 23 
223 186 24 
224 186 25 
225 186 6 
226 189 20 
227 189 28 
228 189 31 
229 189 33 
230 192 16 
231 193 12 
232 193 16 
233 194 16 
234 195 11 
235 195 16 
236 195 27 
237 195 30 
238 196 16 
239 199 14 
240 199 28 
241 199 31 
242 199 33 
243 201 22 
244 201 23 
245 201 24 
246 201 25 
247 201 6 
248 202 18 
249 202 19 
250 209 10 
251 209 12 
252 209 14 
253 209 16 
254 209 18 
255 209 20 
256 209 22 
257 212 11 
258 212 13 
259 212 15 
260 212 17 
261 212 19 
262 212 22 
263 212 25 
264 212 28 
265 212 32 
266 212 8 
267 216 20 
268 217 10 
269 217 12 
270 217 14 
271 217 16 
272 217 18 
273 217 20 
274 218 10 
275 218 12 
276 218 14 
277 218 16 
278 218 18 
279 218 20 
280 218 23 
281 218 26 
282 219 5 
283 222 11 
284 222 13 
285 222 15 
286 222 17 
287 222 19 
288 222 8 
289 232 12 
290 232 13 
291 232 14 
292 232 15 
293 232 17 
294 232 9 
295 235 18 
296 235 23 
297 235 30 
298 235 34 
299 235 6 
300 238 19 
301 238 25 
302 239 19 
303 239 25 
304 240 17 
305 240 19 
306 240 25 
307 241 17 
308 241 19 
309 241 26 
310 241 28 
311 241 5 
312 242 19 
313 242 31 
314 245 18 
315 245 34 
316 245 6 
317 247 12 
318 247 13 
319 247 14 
320 247 15 
321 247 9 
322 248 20 
323 248 21 
324 248 23 
325 248 24 
326 248 25 
327 255 10 
328 255 12 
329 255 13 
330 255 14 
331 255 20 
332 255 22 
333 255 23 
334 255 24 
335 255 30 
336 255 32 
337 255 6 
338 258 17 
339 262 12 
340 262 22 
341 264 11 
342 264 16 
343 264 21 
344 264 26 
345 268 14 
346 268 17 
347 268 24 
348 270 6 
349 278 14 
350 278 16 
351 278 17 
352 278 18 
353 278 28 
354 278 31 
355 281 12 
356 281 22 
357 281 26 
358 281 29 
359 281 8 
360 285 12 
361 285 16 
362 285 5 
363 285 8 
364 286 10 
365 286 28 
366 286 6 
367 287 15 
368 287 20 
369 287 28 
370 288 23 
371 291 11 
372 291 18 
373 291 26 
374 291 29 
375 291 7 
376 293 31 
377 299 20 
378 299 31 
